WARNING: for repeatability, setting FPU to use double precision
============================[ Problem Statistics ]=============================
|                                                                             |
|  Number of variables:           100                                         |
|  Number of clauses:             449                                         |
|  Parse time:                   0.00 s                                       |
|  Simplification time:          0.00 s                                       |
|                                                                             |
============================[ Search Statistics ]==============================
| Conflicts |          ORIGINAL         |          LEARNT          | Progress |
|           |    Vars  Clauses Literals |    Limit  Clauses Lit/Cl |          |
===============================================================================
|       100 |     100      448     1343 |      164      100      6 |  0.011 % |
|       250 |     100      448     1343 |      180      164      6 |  0.011 % |
===============================================================================
restarts              : 3
conflicts             : 344            (93529 /sec)
decisions             : 425            (0.00 % random) (115552 /sec)
propagations          : 7208           (1959761 /sec)
conflict literals     : 1983           (20.78 % deleted)
Memory used           : 13.00 MB
CPU time              : 0.003678 s

SATISFIABLE
